p cnf 44 133
a 25 13 0
e 1 2 3 4 5 6 7 8 9 10 11 12 14 15 16 17 18 19 20 21 22 23 24 26 27 28 29 30 31 32 33 34 35 36 37 38 39 40 41 42 43 44 0
2 3 -4 0
-2 -3 -4 0
2 -3 4 0
-2 3 4 0
5 -1 0
5 4 0
1 -4 -5 0
8 -6 0
8 7 0
6 -7 -8 0
-9 5 0
-9 8 0
-5 -8 9 0
10 3 -11 0
-10 -3 -11 0
10 -3 11 0
-10 3 11 0
-12 -3 0
-12 -1 0
3 1 12 0
11 12 -13 0
-11 -12 -13 0
11 -12 13 0
-11 12 13 0
14 3 0
14 -13 0
-3 13 -14 0
17 15 0
17 -16 0
-15 16 -17 0
16 -6 -18 0
-16 6 -18 0
16 6 18 0
-16 -6 18 0
-19 -3 0
-19 18 0
3 -18 19 0
20 17 0
20 -19 0
-17 19 -20 0
-21 -14 0
-21 20 0
14 -20 21 0
-22 -4 0
-22 15 0
4 -15 22 0
23 21 0
23 -22 0
-21 22 -23 0
24 12 0
24 3 0
-12 -3 -24 0
-25 -24 0
-25 11 0
24 -11 25 0
-25 -17 -26 0
25 17 -26 0
-25 17 26 0
25 -17 26 0
-27 -23 0
-27 -26 0
23 26 27 0
9 -27 -28 0
-9 27 -28 0
9 27 28 0
-9 -27 28 0
29 4 0
29 10 0
-4 -10 -29 0
30 1 0
30 6 0
-1 -6 -30 0
29 -30 -31 0
-29 30 -31 0
29 30 31 0
-29 -30 31 0
-32 31 0
-32 -22 0
-31 22 32 0
-33 -1 0
-33 -3 0
1 3 33 0
-34 3 0
-34 -33 0
-3 33 34 0
35 -2 0
35 -18 0
2 18 -35 0
-36 20 0
-36 25 0
-20 -25 36 0
-37 35 0
-37 -36 0
-35 36 37 0
34 -37 -38 0
-34 37 -38 0
34 37 38 0
-34 -37 38 0
39 -10 0
39 -2 0
10 2 -39 0
-39 6 -40 0
39 -6 -40 0
-39 -6 40 0
39 6 40 0
-41 -24 0
-41 40 0
24 -40 41 0
-38 -41 -42 0
38 41 -42 0
-38 41 42 0
38 -41 42 0
32 -42 -43 0
-32 42 -43 0
32 42 43 0
-32 -42 43 0
28 -43 -44 0
-28 43 -44 0
28 43 44 0
-28 -43 44 0
-25 27 44 -43 -8 24 -22 0
24 -23 31 37 39 33 -34 0
-33 15 38 -11 -20 32 28 0
2 29 7 13 -36 44 41 0
38 -6 -42 19 -26 0
-12 40 3 -19 31 0
33 19 -12 13 8 -40 3 0
-1 -36 7 12 0
-33 15 -11 1 40 -39 -3 18 0
-43 -3 -22 6 -31 -30 17 -13 0
-16 44 -35 7 0
-35 -43 -25 23 -36 0
44 0
